
Gurobi 11.0.1 (win64) logging started Mon May 13 15:37:11 2024

Set parameter LogFile to value "output/solver_log13.txt"
Gurobi Optimizer version 11.0.1 build v11.0.1rc0 (win64 - Windows 11.0 (22631.2))

CPU model: 11th Gen Intel(R) Core(TM) i7-1165G7 @ 2.80GHz, instruction set [SSE2|AVX|AVX2|AVX512]
Thread count: 4 physical cores, 8 logical processors, using up to 8 threads

Optimize a model with 2137 rows, 377 columns and 39383 nonzeros
Model fingerprint: 0xaf4d81e3
Variable types: 248 continuous, 129 integer (129 binary)
Coefficient statistics:
  Matrix range     [4e-01, 1e+05]
  Objective range  [1e+00, 1e+02]
  Bounds range     [1e+00, 1e+00]
  RHS range        [1e-02, 1e+05]

User MIP start produced solution with objective 75527.8 (0.00s)
Loaded user MIP start with objective 75527.8

Presolve removed 88 rows and 87 columns
Presolve time: 0.05s
Presolved: 2049 rows, 290 columns, 38934 nonzeros
Variable types: 228 continuous, 62 integer (62 binary)

Root relaxation: objective 7.558439e+04, 566 iterations, 0.04 seconds (0.07 work units)

    Nodes    |    Current Node    |     Objective Bounds      |     Work
 Expl Unexpl |  Obj  Depth IntInf | Incumbent    BestBd   Gap | It/Node Time

     0     0 75584.3907    0    2 75527.8209 75584.3907  0.07%     -    0s

Explored 1 nodes (566 simplex iterations) in 0.21 seconds (0.28 work units)
Thread count was 8 (of 8 available processors)

Solution count 2: 75527.8 75527.8 

Optimal solution found (tolerance 1.00e-04)
Best objective 7.552782092848e+04, best bound 7.552782092848e+04, gap 0.0000%
